12 32 9 10
6 18 9 10 3 19 17 7 8 16 5 18 1 11 5 1 6 1 8 9 6 4 5 2 11 12 3 20 19 5 4 18 
13.58 3.5 1.14 9.29 15.27 13.39 5.78 13.16 13.7 1.59 6.58 11.88 7.51 8.3 10.25 9.43 13.4 10.85 10.84 9.08 14.62 15.47 12.83 8.6 12.93 15.98 12.93 7.99 12.14 8.03 12.5 12.14 
15.71 7.04 2.84 13.08 4.8 11.84 12.61 14.31 0.83 1.15 6.65 13.58 0.78 14.75 13.45 15.82 7.1 1.87 13.33 4.19 3.18 7.48 0.25 13.57 2.87 11.34 9.85 13.01 7.13 3.3 0.39 13.19 
12.48 12.54 4.94 13.5 11.8 12.46 14.01 14.58 9.1 4.81 13.95 7.78 9.28 0.8 15.31 3.79 2.6 8.77 12.4 12.58 2.46 11.52 10.94 2.94 2.09 10.91 9.99 6.06 11.32 6.26 12.27 8.16 
0.89 11.43 7.3 6.48 11.36 12.55 1 13.17 1.95 1.41 1.55 2.18 1.42 1.52 5.64 3.59 0.87 14.01 10.85 14.03 14.27 7.37 3.64 4.25 11.01 11.06 14.05 12.22 0.99 7.96 6.31 15.33 
5.42 2.91 3.63 5.87 13.27 7.34 14.54 9.26 3.83 13.93 5.09 10.62 7.42 2.04 2.21 11.37 0.97 4.16 5.87 0.62 1 0.37 6.72 3.82 15.98 10.53 12.92 13.91 12.55 4.44 2.43 3.81 
8.13 1.23 2.11 7.22 4.25 4.51 9.05 14.45 13.88 3.07 9.4 1.34 15.96 7.56 5.66 12.96 0.73 2.92 15.78 12.89 4.88 6.13 9.91 11.08 14.48 10.04 7.36 0.14 13.75 4.41 10.18 6.63 
1.92 14.57 15.61 5.5 3.66 4.64 2.01 10.81 0.25 2.82 10.66 4.14 7.01 6.3 10.41 1.59 10.28 4.67 2.4 2.67 7.74 0.77 14.46 2.07 2.4 5.41 9.99 11.63 13.69 6.22 11.48 14.02 
11.32 0.58 5.42 4.44 7.75 0.47 14.36 10.4 10.56 3.06 5.46 8.88 7.32 0.7 11.83 6.38 4.1 1.5 0.71 0.37 15.44 3.48 6.55 7.44 14.99 5.76 13.98 9.12 2.4 15.57 15.51 10.6 
0.83 11.08 3.34 10.27 8.08 11.89 11.58 0.09 7.51 13.43 6.97 15.47 1.18 9.01 7.29 12.84 3.94 12.13 0.82 3.67 7.69 11.32 14.78 14.78 6.39 3.05 7.53 8.19 6.67 1.93 2.65 2.95 
8 8 8 8 8 8 8 8 8 8 8 8 8 8 8 8 8 8 8 8 8 8 8 8 8 8 8 8 8 8 8 8 
8.83 10.73 9.84 10.65 1.34 13.68 6.75 14.33 6.79 6.95 13.22 6.4 11.39 10.24 13.61 0.75 12.06 10.13 4.89 9.31 9.79 0.44 5.51 0.5 14.1 6.73 14.68 4.03 14.15 15.49 2.96 13.78 
14.77 11.03 5.23 12.19 12.02 5.14 3.34 10.58 1.55 15.82 7.78 6.97 3.97 11.95 6.96 4.98 9.46 14.86 14.89 11.86 15.61 6.67 7.18 12.65 14.53 2.47 0.59 13.81 11.2 6.33 4.01 9.63 
1 1 1 1 1 1 1 1 1 1 1 1 1 1 1 1 1 1 1 1 1 1 1 1 1 1 1 1 1 1 1 1 
1 1 1 1 1 1 1 1 1 1 1 1 1 1 1 1 1 1 1 1 1 1 1 1 1 1 1 1 1 1 1 1 
1 1 1 1 1 1 1 1 1 1 1 1 1 1 1 1 1 1 1 1 1 1 1 1 1 1 1 1 1 1 1 1 
1 1 1 1 1 1 1 1 1 1 1 1 1 1 1 1 1 1 1 1 1 1 1 1 1 1 1 1 1 1 1 1 
1 1 1 1 1 1 1 1 1 1 1 1 1 1 1 1 1 1 1 1 1 1 1 1 1 1 1 1 1 1 1 1 
1 1 1 1 1 1 1 1 1 1 1 1 1 1 1 1 1 1 1 1 1 1 1 1 1 1 1 1 1 1 1 1 
1 1 1 1 1 1 1 1 1 1 1 1 1 1 1 1 1 1 1 1 1 1 1 1 1 1 1 1 1 1 1 1 
1 1 1 1 1 1 1 1 1 1 1 1 1 1 1 1 1 1 1 1 1 1 1 1 1 1 1 1 1 1 1 1 
1 1 1 1 1 1 1 1 1 1 1 1 1 1 1 1 1 1 1 1 1 1 1 1 1 1 1 1 1 1 1 1 
1 1 1 1 1 1 1 1 1 1 1 1 1 1 1 1 1 1 1 1 1 1 1 1 1 1 1 1 1 1 1 1 
1 1 1 1 1 1 1 1 1 1 1 1 1 1 1 1 1 1 1 1 1 1 1 1 1 1 1 1 1 1 1 1 
1 1 1 1 1 1 1 1 1 1 1 1 1 1 1 1 1 1 1 1 1 1 1 1 1 1 1 1 1 1 1 1 
0.01 0.01 0.01 0.01 0.01 0.01 0.01 0.01 0.01 0.01 0.01 0.01 0.01 0.01 0.01 0.01 0.01 0.01 0.01 0.01 0.01 0.01 0.01 0.01 0.01 0.01 0.01 0.01 0.01 0.01 0.01 0.01 
0.02 0.02 0.02 0.02 0.02 0.02 0.02 0.02 0.02 0.02 0.02 0.02 0.02 0.02 0.02 0.02 0.02 0.02 0.02 0.02 0.02 0.02 0.02 0.02 0.02 0.02 0.02 0.02 0.02 0.02 0.02 0.02 
0.03 0.03 0.03 0.03 0.03 0.03 0.03 0.03 0.03 0.03 0.03 0.03 0.03 0.03 0.03 0.03 0.03 0.03 0.03 0.03 0.03 0.03 0.03 0.03 0.03 0.03 0.03 0.03 0.03 0.03 0.03 0.03 
0.04 0.04 0.04 0.04 0.04 0.04 0.04 0.04 0.04 0.04 0.04 0.04 0.04 0.04 0.04 0.04 0.04 0.04 0.04 0.04 0.04 0.04 0.04 0.04 0.04 0.04 0.04 0.04 0.04 0.04 0.04 0.04 
0.05 0.05 0.05 0.05 0.05 0.05 0.05 0.05 0.05 0.05 0.05 0.05 0.05 0.05 0.05 0.05 0.05 0.05 0.05 0.05 0.05 0.05 0.05 0.05 0.05 0.05 0.05 0.05 0.05 0.05 0.05 0.05 
0.06 0.06 0.06 0.06 0.06 0.06 0.06 0.06 0.06 0.06 0.06 0.06 0.06 0.06 0.06 0.06 0.06 0.06 0.06 0.06 0.06 0.06 0.06 0.06 0.06 0.06 0.06 0.06 0.06 0.06 0.06 0.06 
0.07 0.07 0.07 0.07 0.07 0.07 0.07 0.07 0.07 0.07 0.07 0.07 0.07 0.07 0.07 0.07 0.07 0.07 0.07 0.07 0.07 0.07 0.07 0.07 0.07 0.07 0.07 0.07 0.07 0.07 0.07 0.07 
0.08 0.08 0.08 0.08 0.08 0.08 0.08 0.08 0.08 0.08 0.08 0.08 0.08 0.08 0.08 0.08 0.08 0.08 0.08 0.08 0.08 0.08 0.08 0.08 0.08 0.08 0.08 0.08 0.08 0.08 0.08 0.08 
0.09 0.09 0.09 0.09 0.09 0.09 0.09 0.09 0.09 0.09 0.09 0.09 0.09 0.09 0.09 0.09 0.09 0.09 0.09 0.09 0.09 0.09 0.09 0.09 0.09 0.09 0.09 0.09 0.09 0.09 0.09 0.09 
0.1 0.1 0.1 0.1 0.1 0.1 0.1 0.1 0.1 0.1 0.1 0.1 0.1 0.1 0.1 0.1 0.1 0.1 0.1 0.1 0.1 0.1 0.1 0.1 0.1 0.1 0.1 0.1 0.1 0.1 0.1 0.1 
0.5 0.5 0.5 0.5 0.5 0.5 0.5 0.5 0.5 0.5 0.5 0.5 0.5 0.5 0.5 0.5 0.5 0.5 0.5 0.5 0.5 0.5 0.5 0.5 0.5 0.5 0.5 0.5 0.5 0.5 0.5 0.5 
1 1 1 1 1 1 1 1 1 1 1 1 1 1 1 1 1 1 1 1 1 1 1 1 1 1 1 1 1 1 1 1 
